c   #vars: 121   #clauses: 554   #literals: 1536
c 
p cnf 121 554
-47 89 90 94 0
-2 -3 0
-4 -5 0
-6 -7 0
-8 -9 0
-10 -11 0
-12 -13 0
-14 -15 0
-16 -17 0
-18 -19 0
-21 -22 0
-23 -24 0
-25 -26 0
30 34 35 -67 0
-18 30 67 68 0
10 11 20 -64 0
-28 -29 0
40 84 85 -98 0
-31 -32 0
84 85 120 121 0
-34 -35 0
47 48 98 99 0
87 88 98 99 0
-36 -37 0
-38 -39 0
55 -79 105 -118 0
12 13 -49 66 0
16 17 84 85 0
-41 -42 0
-43 -44 0
-45 -46 0
-47 -48 0
-49 -50 0
-51 -52 0
-53 -54 0
-23 49 50 66 0
-56 -57 0
82 83 102 103 0
23 24 82 83 0
-58 -59 0
-60 -61 0
-62 -63 0
-64 -65 0
73 98 99 -118 0
-67 -68 0
-69 -70 0
-71 -72 0
-75 86 105 -118 0
-74 -75 0
-76 -77 0
-78 -79 0
-80 -81 0
-82 -83 0
-84 -85 0
6 7 -67 93 0
-87 -88 0
-89 -90 0
-91 -92 0
58 59 -67 97 0
33 43 44 -97 0
-95 -96 0
40 -84 98 99 0
34 35 78 79 0
-2 27 114 115 0
6 7 -100 104 0
43 44 118 119 0
-98 -99 0
-100 -101 0
-102 -103 0
1 21 22 -87 0
-106 -107 0
-108 -109 0
-110 -111 0
-112 -113 0
12 13 58 59 0
-114 -115 0
-116 -117 0
-118 -119 0
14 15 120 121 0
-120 -121 0
89 90 94 -114 0
-1 -22 0
74 75 120 121 0
-47 94 114 115 0
-1 -29 0
10 11 47 48 0
1 28 29 -87 0
51 52 118 119 0
33 -67 -72 97 0
-1 -88 0
89 90 112 113 0
-18 30 34 35 0
-3 -27 0
16 17 102 103 0
-2 -41 0
-3 -42 0
16 17 95 96 0
-2 -47 0
-3 -48 0
95 96 114 115 0
-2 -49 0
-3 -50 0
-2 -80 0
-3 -81 0
-4 -12 0
-5 -13 0
20 64 65 -98 0
76 77 118 119 0
-4 -51 0
-5 -52 0
33 -44 -67 97 0
-4 -82 0
-5 -83 0
-4 -91 0
-5 -92 0
6 7 110 111 0
-4 -112 0
-5 -113 0
55 -63 105 -118 0
-7 -40 0
2 3 80 81 0
-6 -78 0
-7 -79 0
25 26 112 113 0
-33 58 59 97 0
-7 -93 0
-7 -104 0
64 65 116 117 0
-6 -110 0
-7 -111 0
10 11 110 111 0
-6 -114 0
-7 -115 0
10 11 20 -98 0
-8 -28 0
-9 -29 0
23 24 118 119 0
-8 -69 0
-9 -70 0
12 13 -23 66 0
-8 -98 0
-9 -99 0
18 19 102 103 0
-8 -112 0
-9 -113 0
10 11 18 19 0
-10 -18 0
-11 -19 0
-11 -20 0
18 19 100 101 0
-10 -47 0
-11 -48 0
18 19 82 83 0
-10 -58 0
-11 -59 0
-10 -60 0
-11 -61 0
1 -21 87 88 0
-10 -110 0
-11 -111 0
36 37 114 115 0
-12 -41 0
-13 -42 0
33 -58 -72 97 0
-12 -51 0
-13 -52 0
58 59 69 70 0
-12 -58 0
-13 -59 0
73 -95 98 99 0
-13 -66 0
36 37 58 59 0
-12 -67 0
-13 -68 0
1 21 22 -28 0
-12 -108 0
-13 -109 0
-14 -31 0
-15 -32 0
10 11 58 59 0
-14 -34 0
-15 -35 0
34 35 43 44 0
-14 -36 0
-15 -37 0
-14 -38 0
-15 -39 0
56 57 78 79 0
-14 -64 0
-15 -65 0
-14 -80 0
-15 -81 0
41 42 67 68 0
-14 -87 0
-15 -88 0
14 15 36 37 0
-14 -120 0
-15 -121 0
2 3 27 -120 0
14 15 34 35 0
2 3 27 -114 0
33 -44 -58 97 0
55 -63 78 79 0
-2 27 120 121 0
-16 -38 0
-17 -39 0
51 52 120 121 0
-16 -69 0
-17 -70 0
8 9 112 113 0
-16 -84 0
-17 -85 0
45 46 120 121 0
-16 -95 0
-17 -96 0
60 61 106 107 0
-16 -102 0
-17 -103 0
71 72 118 119 0
-6 40 84 85 0
-19 -30 0
31 32 108 109 0
-18 -41 0
-19 -42 0
25 26 89 90 0
-18 -82 0
-19 -83 0
76 77 110 111 0
-18 -100 0
-19 -101 0
53 54 98 99 0
-18 -102 0
-19 -103 0
6 7 78 79 0
-10 20 64 65 0
-49 67 68 93 0
-20 -65 0
110 111 120 121 0
-20 -99 0
21 22 23 24 0
-21 -23 0
-22 -24 0
23 24 25 26 0
-21 -49 0
-22 -50 0
74 75 86 -105 0
-21 -67 0
-22 -68 0
-89 94 114 115 0
-21 -112 0
-22 -113 0
8 9 28 29 0
-23 -25 0
-24 -26 0
116 117 118 119 0
73 95 96 -118 0
-24 -66 0
16 17 38 39 0
-23 -82 0
-24 -83 0
1 -28 87 88 0
-23 -118 0
-24 -119 0
21 22 112 113 0
-25 -86 0
6 7 -49 93 0
-25 -89 0
-26 -90 0
64 65 102 103 0
-25 -112 0
-26 -113 0
18 19 30 -67 0
-27 -115 0
31 32 91 92 0
18 19 30 -34 0
-27 -121 0
87 88 89 90 0
-28 -31 0
-29 -32 0
-28 -62 0
-29 -63 0
6 7 114 115 0
6 7 40 -98 0
-30 -35 0
10 11 60 61 0
6 7 40 -84 0
-30 -68 0
28 29 31 32 0
-31 -76 0
-32 -77 0
12 13 108 109 0
-31 -91 0
-32 -92 0
12 13 51 52 0
28 29 62 63 0
27 -114 120 121 0
36 37 91 92 0
-31 -108 0
-32 -109 0
20 -64 98 99 0
1 -21 28 29 0
36 37 106 107 0
-33 -43 0
8 9 69 70 0
-33 -71 0
87 88 106 107 0
6 7 -69 104 0
58 59 60 61 0
-34 -43 0
-35 -44 0
69 70 -100 104 0
-34 -74 0
-35 -75 0
80 81 91 92 0
-34 -78 0
-35 -79 0
-34 -84 0
-35 -85 0
14 15 38 39 0
-6 67 68 93 0
43 44 89 90 0
-36 -47 0
-37 -48 0
51 52 76 77 0
-36 -49 0
-37 -50 0
69 70 110 111 0
-36 -58 0
-37 -59 0
27 114 115 -120 0
-36 -91 0
-37 -92 0
41 42 80 81 0
-36 -106 0
-37 -107 0
4 5 12 13 0
-36 -114 0
-37 -115 0
45 46 108 109 0
-38 -56 0
-39 -57 0
14 15 31 32 0
-38 -82 0
-39 -83 0
55 -79 -86 105 0
-40 -85 0
53 54 64 65 0
55 -63 -86 105 0
-40 -99 0
12 13 67 68 0
-41 -47 0
-42 -48 0
56 57 62 63 0
-41 -56 0
-42 -57 0
-41 -67 0
-42 -68 0
38 39 82 83 0
-41 -80 0
-42 -81 0
2 3 41 42 0
-41 -95 0
-42 -96 0
21 22 49 50 0
-43 -45 0
-44 -46 0
100 101 108 109 0
-43 -89 0
-44 -90 0
36 37 47 48 0
-43 -98 0
-44 -99 0
-43 -106 0
-44 -107 0
47 48 71 72 0
-43 -118 0
-44 -119 0
2 3 49 50 0
-45 -62 0
-46 -63 0
-45 -78 0
-46 -79 0
-33 67 68 97 0
-45 -108 0
-46 -109 0
73 -98 118 119 0
-45 -120 0
-46 -121 0
-47 -71 0
-48 -72 0
-26 74 75 86 0
33 43 44 -72 0
-48 -94 0
21 22 67 68 0
-47 -98 0
-48 -99 0
41 42 47 48 0
73 95 96 -98 0
-50 -66 0
16 17 69 70 0
-50 -93 0
43 44 45 46 0
-51 -76 0
-52 -77 0
-51 -118 0
-52 -119 0
-6 40 98 99 0
-51 -120 0
-52 -121 0
38 39 56 57 0
-53 -62 0
-54 -63 0
56 57 60 61 0
-53 -64 0
-54 -65 0
18 19 41 42 0
-53 -69 0
-54 -70 0
12 13 41 42 0
-53 -84 0
-54 -85 0
87 88 100 101 0
-53 -98 0
-54 -99 0
14 15 80 81 0
-55 -62 0
-12 49 50 66 0
-55 105 118 119 0
-55 -78 0
23 24 -49 66 0
36 37 49 50 0
43 44 98 99 0
-12 23 24 66 0
55 62 63 -105 0
-56 -60 0
-57 -61 0
53 54 62 63 0
-56 -62 0
-57 -63 0
45 46 62 63 0
-56 -78 0
-57 -79 0
4 5 112 113 0
74 75 112 113 0
25 26 -75 86 0
-58 -60 0
-59 -61 0
53 54 69 70 0
-58 -69 0
-59 -70 0
-69 100 101 104 0
-59 -97 0
55 62 63 -79 0
-60 -106 0
-61 -107 0
2 3 47 48 0
-64 -102 0
-65 -103 0
45 46 78 79 0
-64 -116 0
-65 -117 0
55 78 79 -105 0
-68 -93 0
-6 100 101 104 0
-68 -97 0
-70 -104 0
47 48 94 -114 0
-69 -110 0
-70 -111 0
34 35 74 75 0
-71 -84 0
-72 -85 0
74 75 116 117 0
-71 -114 0
-72 -115 0
74 75 100 101 0
-71 -118 0
-72 -119 0
-26 86 105 -118 0
-73 -96 0
53 54 84 85 0
-55 -75 86 105 0
-73 -99 0
30 -34 67 68 0
-26 -55 86 105 0
-73 -119 0
47 48 -89 94 0
-74 -86 0
49 50 -67 93 0
14 15 64 65 0
-74 -100 0
-75 -101 0
71 72 84 85 0
-74 -112 0
-75 -113 0
4 5 82 83 0
-74 -116 0
-75 -117 0
34 35 84 85 0
-74 -120 0
-75 -121 0
-10 20 98 99 0
-76 -110 0
-77 -111 0
-58 67 68 97 0
-76 -118 0
-77 -119 0
-6 69 70 104 0
-80 -91 0
-81 -92 0
43 44 106 107 0
-82 -102 0
-83 -103 0
71 72 114 115 0
-84 -120 0
-85 -121 0
41 42 95 96 0
-6 49 50 93 0
-87 -89 0
-88 -90 0
-87 -98 0
-88 -99 0
-86 105 118 119 0
-87 -100 0
-88 -101 0
41 42 56 57 0
-87 -106 0
-88 -107 0
4 5 51 52 0
-87 -116 0
-88 -117 0
73 -95 118 119 0
33 71 72 -97 0
-90 -94 0
8 9 98 99 0
-89 -112 0
-90 -113 0
14 15 87 88 0
33 -44 71 72 0
-94 -115 0
31 32 76 77 0
-95 -114 0
-96 -115 0
-101 -104 0
87 88 116 117 0
-100 -108 0
-101 -109 0
-105 -119 0
25 26 86 -105 0
-110 -120 0
-111 -121 0
4 5 91 92 0
-116 -118 0
-117 -119 0
